NAME: cum80.tsp
TYPE: TSP
COMMENT: User-generated TSP file
DIMENSION: 400
EDGE_WEIGHT_TYPE: EUC_2D
NODE_COORD_SECTION
1 269.0 317.0
2 357.0 147.0
3 5.0 51.0
4 253.0 249.0
5 367.0 296.0
6 263.0 310.0
7 61.0 132.0
8 364.0 137.0
9 340.0 383.0
10 246.0 91.0
11 229.0 92.0
12 217.0 158.0
13 167.0 44.0
14 5.0 268.0
15 123.0 188.0
16 198.0 88.0
17 348.0 289.0
18 305.0 276.0
19 55.0 119.0
20 372.0 365.0
21 243.0 238.0
22 144.0 189.0
23 131.0 330.0
24 166.0 269.0
25 262.0 160.0
26 161.0 68.0
27 318.0 213.0
28 337.0 111.0
29 297.0 79.0
30 105.0 202.0
31 70.0 189.0
32 120.0 95.0
33 87.0 159.0
34 102.0 115.0
35 374.0 377.0
36 218.0 203.0
37 354.0 205.0
38 72.0 180.0
39 82.0 352.0
40 24.0 209.0
41 179.0 303.0
42 140.0 358.0
43 336.0 355.0
44 107.0 386.0
45 305.0 358.0
46 171.0 196.0
47 159.0 234.0
48 30.0 48.0
49 137.0 266.0
50 185.0 207.0
51 91.0 49.0
52 156.0 197.0
53 374.0 127.0
54 246.0 298.0
55 114.0 260.0
56 202.0 217.0
57 353.0 29.0
58 323.0 363.0
59 114.0 361.0
60 332.0 71.0
61 115.0 254.0
62 199.0 209.0
63 181.0 76.0
64 276.0 147.0
65 363.0 322.0
66 238.0 54.0
67 244.0 271.0
68 116.0 351.0
69 318.0 202.0
70 358.0 173.0
71 312.0 285.0
72 306.0 333.0
73 357.0 215.0
74 116.0 324.0
75 185.0 189.0
76 3.0 101.0
77 378.0 207.0
78 338.0 135.0
79 56.0 32.0
80 246.0 335.0
81 174.0 337.0
82 204.0 108.0
83 97.0 351.0
84 195.0 155.0
85 128.0 50.0
86 62.0 390.0
87 147.0 297.0
88 120.0 27.0
89 182.0 335.0
90 37.0 111.0
91 175.0 388.0
92 282.0 301.0
93 259.0 308.0
94 199.0 139.0
95 302.0 280.0
96 77.0 244.0
97 204.0 238.0
98 241.0 100.0
99 86.0 162.0
100 365.0 199.0
101 93.0 235.0
102 369.0 314.0
103 46.0 388.0
104 337.0 351.0
105 395.0 140.0
106 97.0 80.0
107 10.0 255.0
108 48.0 345.0
109 281.0 214.0
110 77.0 272.0
111 118.0 125.0
112 57.0 363.0
113 344.0 132.0
114 339.0 269.0
115 227.0 213.0
116 22.0 284.0
117 18.0 99.0
118 16.0 21.0
119 392.0 202.0
120 50.0 73.0
121 381.0 271.0
122 371.0 62.0
123 240.0 26.0
124 99.0 316.0
125 111.0 274.0
126 61.0 92.0
127 251.0 95.0
128 11.0 107.0
129 300.0 16.0
130 222.0 94.0
131 73.0 297.0
132 290.0 66.0
133 358.0 64.0
134 106.0 364.0
135 379.0 352.0
136 97.0 130.0
137 296.0 82.0
138 219.0 333.0
139 17.0 250.0
140 117.0 154.0
141 216.0 256.0
142 209.0 251.0
143 113.0 55.0
144 69.0 63.0
145 303.0 37.0
146 48.0 365.0
147 365.0 195.0
148 317.0 362.0
149 61.0 169.0
150 133.0 211.0
151 331.0 296.0
152 399.0 249.0
153 258.0 15.0
154 175.0 206.0
155 163.0 379.0
156 344.0 243.0
157 78.0 103.0
158 12.0 258.0
159 261.0 366.0
160 311.0 113.0
161 261.0 109.0
162 284.0 83.0
163 303.0 233.0
164 267.0 229.0
165 349.0 160.0
166 39.0 50.0
167 105.0 138.0
168 33.0 354.0
169 70.0 192.0
170 17.0 374.0
171 248.0 61.0
172 58.0 308.0
173 43.0 232.0
174 24.0 26.0
175 335.0 374.0
176 153.0 118.0
177 151.0 188.0
178 30.0 258.0
179 327.0 371.0
180 159.0 238.0
181 243.0 240.0
182 139.0 397.0
183 5.0 47.0
184 291.0 76.0
185 215.0 35.0
186 258.0 201.0
187 332.0 245.0
188 367.0 4.0
189 195.0 159.0
190 13.0 346.0
191 363.0 199.0
192 306.0 337.0
193 118.0 152.0
194 280.0 62.0
195 139.0 390.0
196 244.0 119.0
197 124.0 198.0
198 292.0 280.0
199 84.0 231.0
200 156.0 391.0
201 111.0 271.0
202 325.0 280.0
203 284.0 272.0
204 126.0 352.0
205 44.0 372.0
206 269.0 74.0
207 331.0 68.0
208 178.0 175.0
209 26.0 244.0
210 188.0 67.0
211 221.0 306.0
212 14.0 283.0
213 212.0 171.0
214 108.0 115.0
215 357.0 386.0
216 22.0 390.0
217 99.0 161.0
218 5.0 11.0
219 336.0 69.0
220 199.0 342.0
221 334.0 192.0
222 8.0 367.0
223 283.0 169.0
224 300.0 73.0
225 121.0 151.0
226 127.0 231.0
227 117.0 292.0
228 356.0 308.0
229 330.0 286.0
230 128.0 270.0
231 234.0 252.0
232 138.0 148.0
233 328.0 337.0
234 346.0 97.0
235 225.0 365.0
236 209.0 78.0
237 396.0 39.0
238 157.0 158.0
239 379.0 238.0
240 97.0 353.0
241 189.0 33.0
242 268.0 237.0
243 199.0 39.0
244 94.0 389.0
245 111.0 391.0
246 265.0 98.0
247 145.0 121.0
248 196.0 10.0
249 349.0 293.0
250 346.0 15.0
251 285.0 64.0
252 213.0 4.0
253 278.0 316.0
254 223.0 274.0
255 137.0 197.0
256 168.0 312.0
257 14.0 160.0
258 95.0 76.0
259 351.0 97.0
260 76.0 302.0
261 330.0 153.0
262 103.0 185.0
263 257.0 43.0
264 148.0 361.0
265 199.0 248.0
266 288.0 325.0
267 273.0 193.0
268 47.0 336.0
269 81.0 97.0
270 398.0 349.0
271 340.0 353.0
272 102.0 311.0
273 74.0 163.0
274 123.0 364.0
275 336.0 151.0
276 9.0 232.0
277 359.0 231.0
278 262.0 219.0
279 317.0 124.0
280 378.0 205.0
281 80.0 107.0
282 234.0 31.0
283 324.0 177.0
284 210.0 297.0
285 1.0 274.0
286 282.0 293.0
287 112.0 182.0
288 342.0 281.0
289 214.0 97.0
290 9.0 40.0
291 399.0 114.0
292 4.0 319.0
293 194.0 45.0
294 286.0 70.0
295 14.0 181.0
296 120.0 31.0
297 291.0 5.0
298 258.0 314.0
299 214.0 117.0
300 273.0 240.0
301 135.0 81.0
302 106.0 304.0
303 45.0 393.0
304 232.0 129.0
305 142.0 352.0
306 388.0 333.0
307 80.0 87.0
308 198.0 170.0
309 137.0 309.0
310 244.0 257.0
311 17.0 208.0
312 383.0 53.0
313 311.0 54.0
314 136.0 200.0
315 11.0 214.0
316 4.0 106.0
317 361.0 136.0
318 196.0 146.0
319 326.0 271.0
320 171.0 51.0
321 152.0 349.0
322 278.0 356.0
323 212.0 345.0
324 99.0 61.0
325 346.0 318.0
326 159.0 113.0
327 26.0 127.0
328 10.0 262.0
329 129.0 157.0
330 328.0 99.0
331 88.0 10.0
332 268.0 225.0
333 128.0 389.0
334 239.0 235.0
335 393.0 92.0
336 358.0 66.0
337 286.0 177.0
338 243.0 393.0
339 68.0 304.0
340 353.0 327.0
341 91.0 128.0
342 131.0 211.0
343 211.0 52.0
344 34.0 268.0
345 87.0 143.0
346 122.0 306.0
347 230.0 267.0
348 180.0 264.0
349 397.0 358.0
350 336.0 324.0
351 51.0 227.0
352 110.0 259.0
353 203.0 400.0
354 295.0 155.0
355 270.0 170.0
356 104.0 139.0
357 158.0 260.0
358 272.0 217.0
359 242.0 154.0
360 127.0 126.0
361 107.0 170.0
362 59.0 345.0
363 22.0 296.0
364 113.0 60.0
365 197.0 114.0
366 221.0 79.0
367 278.0 251.0
368 30.0 386.0
369 374.0 105.0
370 124.0 93.0
371 128.0 151.0
372 316.0 50.0
373 336.0 60.0
374 194.0 347.0
375 68.0 48.0
376 385.0 325.0
377 125.0 284.0
378 218.0 137.0
379 184.0 127.0
380 321.0 54.0
381 142.0 385.0
382 217.0 171.0
383 76.0 342.0
384 382.0 244.0
385 112.0 38.0
386 111.0 286.0
387 369.0 98.0
388 286.0 108.0
389 44.0 182.0
390 353.0 154.0
391 263.0 4.0
392 237.0 200.0
393 85.0 334.0
394 163.0 350.0
395 235.0 239.0
396 52.0 144.0
397 40.0 180.0
398 378.0 87.0
399 155.0 356.0
400 272.0 280.0
EOF

